/* Data file autogenerated */

data;

set N := 0 2 4 6 8 10;

set M := 32 42 52;

set F := 26 30;

param: 		p :=
0 		100.0
2 		100.0
4 		100.0
6 		0.0
8 		0.0
10 		100.0
32 		30.0
42 		30.0
52 		30.0;

param b:
0 2 4 6 8 10 32 42 52 :=
0 0.0 0.0 0.0 100.0 0.0 0.0 10000.0 10000.0 10000.0 
2 0.0 0.0 0.0 0.0 100.0 0.0 10000.0 10000.0 10000.0 
4 0.0 0.0 0.0 100.0 0.0 0.0 10000.0 10000.0 10000.0 
6 100.0 0.0 100.0 0.0 100.0 0.0 0.0 0.0 0.0 
8 0.0 100.0 0.0 100.0 0.0 100.0 0.0 0.0 0.0 
10 0.0 0.0 0.0 0.0 100.0 0.0 10000.0 10000.0 10000.0 
32 10000.0 10000.0 10000.0 0.0 0.0 10000.0 0.0 0.0 0.0 
42 10000.0 10000.0 10000.0 0.0 0.0 10000.0 0.0 0.0 0.0 
52 10000.0 10000.0 10000.0 0.0 0.0 10000.0 0.0 0.0 0.0 
;

param: 		fs :=

26 		32
30 		42;

param: 		fe :=

26 		42
30 		52;

param: 		fd :=

26 		2.0
30 		2.0;

end;
